data/solutions/recovery/wellformed/moderate/flexible/wellformed_moderate_instance53/9.sol
Elapsed time: 0.03
Upper bound: 4221.0
Planning weighted value: 134003.0
C[0]=4221.0
C[1]=4146.0
C[2]=4105.0
C[3]=3957.0
C[4]=3910.0
y[0]=2
y[1]=3
y[2]=2
y[3]=0
y[4]=4
y[5]=2
y[6]=4
y[7]=1
y[8]=4
y[9]=2
y[10]=3
y[11]=1
y[12]=0
y[13]=3
y[14]=1
y[15]=2
y[16]=3
y[17]=4
y[18]=0
y[19]=1
